\ENCODING=ISO-8859-1
\Problem name: IloCplex

Maximize
 obj1: 0.363636363636364 D_1 + 0.0909090909090909 D_2 + 0.136363636363636 D_4
Subject To
 c1: 180 D_1 + 120 D_2 + 90 D_4 + 80 D_3 + 40 D_5 <= 500
 c2: 180 D_1 + 70 D_2 + 60 D_4 + 50 D_3 + 80 D_5 <= 1
Bounds
      D_1 >= 0
      D_2 >= 0
      D_4 >= 0
      D_3 >= 0
      D_5 >= 0
Generals
 D_1  D_2  D_4  D_3  D_5 
End
